<number of tasks>
100

<cycle time>
1000

<order strength>
0.603


<task times>
1 535
2 304
3 700
4 553
5 531
6 574
7 605
8 301
9 469
10 665
11 497
12 441
13 481
14 414
15 482
16 486
17 613
18 593
19 469
20 659
21 647
22 510
23 572
24 612
25 274
26 676
27 700
28 244
29 477
30 429
31 475
32 621
33 521
34 600
35 552
36 435
37 413
38 568
39 350
40 440
41 321
42 605
43 493
44 359
45 552
46 649
47 314
48 504
49 646
50 565
51 312
52 618
53 661
54 612
55 578
56 588
57 541
58 468
59 473
60 544
61 535
62 491
63 415
64 349
65 778
66 486
67 780
68 648
69 400
70 585
71 341
72 863
73 359
74 422
75 371
76 470
77 766
78 576
79 547
80 613
81 452
82 521
83 399
84 465
85 410
86 480
87 641
88 463
89 345
90 438
91 672
92 463
93 327
94 426
95 355
96 589
97 424
98 380
99 667
100 305

<precedence relations>
1,5
1,6
1,8
1,9
1,17
2,7
2,8
2,9
2,10
3,24
3,26
4,9
5,11
6,14
7,12
7,15
7,16
7,17
8,13
8,16
8,18
8,24
9,18
10,16
11,20
12,19
13,21
14,23
15,22
16,23
17,24
17,29
18,23
18,30
19,26
20,25
21,26
22,26
23,26
23,27
23,28
23,29
24,30
25,31
26,32
26,34
27,33
27,34
27,35
28,35
29,34
29,35
30,34
30,45
31,36
32,38
33,39
34,37
34,41
34,46
34,49
35,40
35,41
35,42
36,45
37,43
38,45
39,46
40,44
41,47
41,48
42,47
42,49
42,78
43,53
44,52
45,50
45,54
46,78
47,51
47,70
50,55
51,56
52,57
53,58
53,59
54,59
54,60
55,61
56,63
57,63
58,62
59,63
59,66
60,64
60,65
60,84
61,67
62,68
63,69
63,72
63,73
63,76
63,80
64,76
65,70
66,71
66,73
66,87
67,76
68,74
69,75
70,88
71,78
72,77
73,95
73,96
73,98
74,80
75,79
76,83
77,84
78,80
78,81
78,82
79,87
80,85
80,88
80,90
80,96
81,86
81,89
81,90
82,94
83,88
83,98
84,87
84,88
85,91
86,92
88,93
88,95
89,94
89,96
91,98
92,99
93,97
96,100

<end>
